p cnf 15 22
15 12 11 0
15 -10 -2 0
15 -8 -6 0
-15 7 4 0
-15 -3 1 0
-15 3 1 0
14 13 12 0
14 -13 -10 0
-14 12 4 0
-14 -11 -1 0
14 -6 -5 0
-14 -6 1 0
12 -11 9 0
12 4 3 0
-11 10 -2 0
11 8 2 0
11 -4 -2 0
10 7 -6 0
9 3 2 0
9 -3 2 0
7 -6 2 0
-6 4 3 0
